* ENCODING=ISO-8859-1
NAME          CPLEX
ROWS
 N  obj1    
 G  c1      
 G  c2      
 G  c3      
 G  c4      
 G  c5      
 G  c6      
 G  c7      
 G  c8      
 G  c9      
 G  c10     
 G  c11     
 G  c12     
 G  c13     
 G  c14     
 G  c15     
 G  c16     
 G  c17     
 G  c18     
 G  c19     
 G  c20     
 G  c21     
 G  c22     
 G  c23     
 G  c24     
 G  c25     
 G  c26     
 G  c27     
 G  c28     
 G  c29     
 G  c30     
 G  c31     
 G  c32     
 G  c33     
 G  c34     
 G  c35     
 G  c36     
 G  c37     
 G  c38     
 G  c39     
 G  c40     
 G  c41     
 G  c42     
 G  c43     
 G  c44     
 G  c45     
 G  c46     
 G  c47     
 G  c48     
 G  c49     
 G  c50     
 G  c51     
 G  c52     
 G  c53     
 G  c54     
 G  c55     
 G  c56     
 G  c57     
 G  c58     
 G  c59     
 G  c60     
 G  c61     
 G  c62     
 G  c63     
 G  c64     
 G  c65     
 G  c66     
 G  c67     
 G  c68     
 G  c69     
 G  c70     
COLUMNS
    MARK0000  'MARKER'                 'INTORG'
    x1        obj1                            1
    x1        c3                            588
    x1        c4                            292
    x1        c12                           981
    x1        c14                           264
    x1        c28                           736
    x1        c32                           507
    x1        c57                           247
    x1        c64                           833
    x1        c69                           907
    x2        obj1                            1
    x2        c22                           510
    x2        c25                           787
    x2        c37                           679
    x2        c66                           533
    x2        c67                           616
    x2        c70                           149
    x3        obj1                            1
    x3        c2                            538
    x3        c3                            531
    x3        c5                            393
    x3        c38                           263
    x3        c40                           849
    x3        c48                           282
    x3        c68                           994
    x4        obj1                            1
    x4        c8                            741
    x4        c11                           292
    x4        c13                           790
    x4        c15                           857
    x4        c20                           142
    x4        c21                           510
    x4        c24                           204
    x4        c35                           730
    x4        c54                           248
    x4        c68                           727
    x5        obj1                            1
    x5        c3                            576
    x5        c17                           987
    x5        c30                           912
    x5        c41                           370
    x5        c42                           373
    x5        c43                           403
    x5        c48                           581
    x6        obj1                            1
    x6        c1                            119
    x6        c30                           706
    x6        c34                           194
    x6        c39                           528
    x6        c42                           627
    x6        c47                           307
    x6        c53                           854
    x6        c59                           462
    x7        obj1                            1
    x7        c15                           169
    x7        c16                           385
    x7        c19                           508
    x7        c28                           136
    x7        c30                           627
    x7        c41                           660
    x7        c59                           980
    x7        c60                           253
    x7        c61                           747
    x7        c63                           852
    x8        obj1                            1
    x8        c4                            969
    x8        c5                            470
    x8        c6                            358
    x8        c36                           560
    x8        c46                           951
    x8        c52                           742
    x8        c58                           336
    x8        c63                           431
    x8        c66                           797
    x9        obj1                            1
    x9        c4                            303
    x9        c6                            262
    x9        c34                           103
    x9        c51                           124
    x9        c54                           157
    x10       obj1                            1
    x10       c15                           850
    x10       c18                           743
    x10       c32                           779
    x11       obj1                            1
    x11       c1                            724
    x11       c20                           164
    x11       c33                           798
    x11       c53                           748
    x11       c55                           442
    x12       obj1                            1
    x12       c8                            372
    x12       c9                            158
    x12       c13                           208
    x12       c26                           961
    x12       c32                           573
    x12       c33                           396
    x12       c36                           102
    x12       c37                           476
    x12       c40                           379
    x12       c43                           654
    x12       c47                           239
    x12       c67                           641
    x13       obj1                            1
    x13       c5                            385
    x13       c21                           701
    x13       c33                           436
    x13       c37                           939
    x13       c39                           453
    x13       c61                           373
    x14       obj1                            1
    x14       c13                           754
    x14       c14                           597
    x14       c20                           955
    x14       c21                           313
    x14       c48                           767
    x14       c59                           479
    x14       c62                           975
    x14       c68                           486
    x15       obj1                            1
    x15       c13                           653
    x15       c16                           232
    x15       c31                           142
    x15       c48                           184
    x15       c54                           390
    x16       obj1                            1
    x16       c4                            383
    x16       c16                           633
    x16       c19                           903
    x16       c26                           345
    x16       c35                           209
    x16       c56                           536
    x17       obj1                            1
    x17       c2                            498
    x17       c3                            442
    x17       c4                            358
    x17       c7                            678
    x17       c12                           602
    x17       c15                           195
    x17       c16                           484
    x17       c59                           654
    x17       c62                           721
    x17       c65                           519
    x18       obj1                            1
    x18       c17                           773
    x18       c31                           404
    x18       c32                           163
    x18       c54                           331
    x18       c68                           890
    x18       c69                           944
    x19       obj1                            1
    x19       c3                            197
    x19       c9                            148
    x19       c10                           860
    x19       c27                           547
    x19       c29                           689
    x19       c36                           131
    x19       c37                           104
    x19       c64                           267
    x20       obj1                            1
    x20       c3                            171
    x20       c7                            483
    x20       c17                           805
    x20       c30                           464
    x20       c55                           595
    x20       c64                           285
    x20       c68                           320
    x21       obj1                            1
    x21       c1                            228
    x21       c39                           855
    x21       c57                           299
    x21       c64                           652
    x22       obj1                            1
    x22       c13                           818
    x22       c15                           960
    x22       c16                           405
    x22       c39                           298
    x22       c61                           388
    x23       obj1                            1
    x23       c5                            584
    x23       c17                           198
    x23       c23                           525
    x24       obj1                            1
    x24       c2                            430
    x24       c21                           693
    x24       c22                           806
    x24       c24                           782
    x24       c28                           198
    x24       c34                           411
    x24       c38                           663
    x24       c45                           237
    x24       c46                           159
    x24       c50                           143
    x24       c52                           610
    x25       obj1                            1
    x25       c7                            450
    x25       c8                            815
    x25       c9                            202
    x25       c32                           227
    x25       c44                           543
    x25       c69                           772
    x26       obj1                            1
    x26       c5                            249
    x26       c13                           843
    x26       c35                           980
    x26       c36                           519
    x26       c38                           261
    x26       c48                           351
    x26       c50                           857
    x26       c62                           541
    x27       obj1                            1
    x27       c2                            604
    x27       c12                           271
    x27       c13                           745
    x27       c15                           534
    x27       c43                           262
    x27       c47                           940
    x27       c49                           860
    x27       c58                           867
    x28       obj1                            1
    x28       c18                           537
    x28       c27                           889
    x28       c35                           165
    x28       c39                           356
    x28       c40                           441
    x28       c44                           849
    x29       obj1                            1
    x29       c4                            523
    x29       c10                           556
    x29       c16                          1000
    x29       c21                           415
    x29       c24                           562
    x29       c28                           200
    x29       c29                           400
    x29       c38                           575
    x29       c41                           294
    x29       c64                           504
    x30       obj1                            1
    x30       c5                            744
    x30       c17                           946
    x30       c25                           806
    x30       c34                           614
    x30       c39                           965
    x30       c55                           440
    x30       c58                           406
    x30       c60                           664
    x31       obj1                            1
    x31       c47                           386
    x31       c55                           460
    x31       c56                           882
    x31       c59                           704
    x31       c65                           552
    x31       c66                           954
    x32       obj1                            1
    x32       c4                            638
    x32       c6                            449
    x32       c19                           150
    x32       c20                           450
    x32       c30                           474
    x32       c35                           659
    x32       c41                           346
    x32       c48                           580
    x32       c53                           121
    x32       c55                           533
    x33       obj1                            1
    x33       c6                            730
    x33       c10                           130
    x33       c26                           481
    x33       c32                           190
    x33       c54                           335
    x33       c64                           249
    x34       obj1                            1
    x34       c4                            431
    x34       c5                            790
    x34       c7                            498
    x34       c12                           831
    x34       c20                           625
    x34       c29                           649
    x34       c45                           299
    x34       c52                           269
    x34       c53                           422
    x34       c58                           487
    x34       c65                           677
    x35       obj1                            1
    x35       c17                           458
    x35       c24                           792
    x35       c30                           771
    x35       c48                           343
    x35       c53                           425
    x35       c56                           730
    x35       c58                           270
    x36       obj1                            1
    x36       c12                           475
    x36       c16                           215
    x36       c22                           940
    x36       c38                           634
    x36       c51                           362
    x37       obj1                            1
    x37       c30                           270
    x37       c33                           428
    x37       c42                           320
    x37       c54                           361
    x38       obj1                            1
    x38       c9                            683
    x38       c20                           672
    x38       c29                           913
    x38       c40                           777
    x38       c56                           983
    x39       obj1                            1
    x39       c11                           812
    x39       c17                           707
    x39       c41                           915
    x39       c43                           498
    x39       c49                           753
    x39       c52                           212
    x39       c54                           434
    x40       obj1                            1
    x40       c43                           339
    x40       c51                           545
    x41       obj1                            1
    x41       c12                           979
    x41       c17                           449
    x41       c23                           473
    x41       c53                           432
    x41       c57                           613
    x42       obj1                            1
    x42       c10                           340
    x42       c20                           139
    x42       c26                           613
    x42       c31                           340
    x42       c37                           646
    x42       c45                           299
    x42       c52                           111
    x42       c56                           642
    x42       c66                           820
    x42       c69                           208
    x43       obj1                            1
    x43       c32                           157
    x43       c61                           643
    x44       obj1                            1
    x44       c6                            240
    x44       c11                           362
    x44       c14                           861
    x44       c23                           440
    x44       c33                           369
    x45       obj1                            1
    x45       c3                            432
    x45       c7                            756
    x45       c11                           215
    x45       c20                           914
    x45       c23                           684
    x45       c28                           886
    x45       c43                           585
    x45       c60                           300
    x45       c64                           184
    x45       c67                           328
    x45       c68                           743
    x46       obj1                            1
    x46       c8                            516
    x46       c11                           627
    x46       c35                           485
    x46       c51                           202
    x46       c69                           787
    x47       obj1                            1
    x47       c7                            496
    x47       c13                           819
    x47       c21                           867
    x47       c22                           844
    x47       c27                           450
    x47       c32                           471
    x47       c50                           358
    x47       c51                           183
    x48       obj1                            1
    x48       c31                           800
    x48       c36                           543
    x48       c47                           481
    x48       c50                           683
    x49       obj1                            1
    x49       c4                            959
    x49       c35                           269
    x49       c37                           223
    x49       c47                           109
    x49       c70                           253
    x50       obj1                            1
    x50       c18                           840
    x50       c25                           150
    x50       c30                           517
    x50       c35                           549
    x50       c63                           928
    x51       obj1                            1
    x51       c2                            883
    x51       c5                            170
    x51       c29                           305
    x51       c37                           661
    x51       c39                           160
    x51       c40                           983
    x51       c46                           738
    x51       c49                           528
    x52       obj1                            1
    x52       c6                            995
    x52       c18                           627
    x52       c33                           711
    x52       c39                           322
    x52       c49                           709
    x52       c53                           395
    x53       obj1                            1
    x53       c5                            498
    x53       c9                            853
    x53       c41                           293
    x53       c50                           643
    x53       c63                           605
    x53       c66                           414
    x53       c69                           776
    x54       obj1                            1
    x54       c3                            244
    x54       c6                            873
    x54       c12                           320
    x54       c19                           253
    x54       c22                           399
    x54       c49                           196
    x54       c52                           109
    x54       c67                           899
    x54       c69                           408
    x55       obj1                            1
    x55       c3                            248
    x55       c34                           681
    x55       c46                           409
    x55       c48                           540
    x55       c50                           968
    x55       c60                           986
    x55       c67                           881
    x56       obj1                            1
    x56       c1                            975
    x56       c15                           839
    x56       c30                           538
    x56       c35                           369
    x56       c41                           525
    x56       c55                           677
    x57       obj1                            1
    x57       c1                            222
    x57       c25                           217
    x57       c36                           284
    x57       c42                           785
    x57       c52                           772
    x57       c53                           546
    x58       obj1                            1
    x58       c2                            186
    x58       c26                           920
    x58       c28                           110
    x58       c31                           783
    x58       c32                           528
    x58       c37                           659
    x59       obj1                            1
    x59       c13                           738
    x59       c29                           637
    x59       c34                           275
    x60       obj1                            1
    x60       c38                           285
    x60       c45                           533
    x60       c50                           273
    x60       c63                           785
    x61       obj1                            1
    x61       c8                            954
    x61       c9                            998
    x61       c10                           680
    x61       c14                           939
    x61       c21                           274
    x61       c28                           914
    x61       c29                           423
    x61       c34                           736
    x61       c37                           444
    x61       c61                           830
    x61       c70                           995
    x62       obj1                            1
    x62       c12                           393
    x62       c25                           612
    x62       c39                           739
    x62       c41                           546
    x62       c49                           513
    x62       c52                           138
    x62       c57                           694
    x62       c70                           371
    x63       obj1                            1
    x63       c6                            736
    x63       c16                           753
    x63       c21                           314
    x63       c47                           467
    x63       c49                           121
    x63       c59                           352
    x64       obj1                            1
    x64       c10                           982
    x64       c12                           434
    x64       c24                           531
    x64       c27                           707
    x64       c44                           253
    x64       c57                           387
    x64       c62                           784
    x65       obj1                            1
    x65       c15                           314
    x65       c17                           314
    x65       c18                           689
    x65       c20                           689
    x65       c25                           759
    x65       c33                           583
    x65       c44                           653
    x65       c52                           569
    x66       obj1                            1
    x66       c15                           443
    x66       c23                           176
    x66       c25                           249
    x66       c36                           467
    x66       c65                           209
    x66       c66                           891
    x66       c69                           762
    x66       c70                           673
    x67       obj1                            1
    x67       c8                            986
    x67       c16                           813
    x67       c21                           679
    x67       c23                           335
    x67       c25                           357
    x67       c46                           141
    x67       c51                           993
    x67       c59                           924
    x67       c62                           440
    x68       obj1                            1
    x68       c6                            139
    x68       c25                           910
    x68       c31                           343
    x68       c59                           434
    x69       obj1                            1
    x69       c7                            649
    x69       c29                           504
    x69       c52                           491
    x69       c57                           958
    x70       obj1                            1
    x70       c6                            888
    x70       c9                            178
    x70       c10                           198
    x70       c16                           338
    x70       c31                           755
    x70       c57                           991
    MARK0001  'MARKER'                 'INTEND'
RHS
    rhs       c1                           1134
    rhs       c2                           1570
    rhs       c3                           1715
    rhs       c4                           2428
    rhs       c5                           2142
    rhs       c6                           2835
    rhs       c7                           2005
    rhs       c8                           2192
    rhs       c9                           1610
    rhs       c10                          1873
    rhs       c11                          1154
    rhs       c12                          2643
    rhs       c13                          3184
    rhs       c14                          1331
    rhs       c15                          2581
    rhs       c16                          2629
    rhs       c17                          2819
    rhs       c18                          1718
    rhs       c19                           907
    rhs       c20                          2375
    rhs       c21                          2383
    rhs       c22                          1750
    rhs       c23                          1317
    rhs       c24                          1436
    rhs       c25                          2424
    rhs       c26                          1660
    rhs       c27                          1297
    rhs       c28                          1590
    rhs       c29                          2260
    rhs       c30                          2640
    rhs       c31                          1784
    rhs       c32                          1798
    rhs       c33                          1861
    rhs       c34                          1507
    rhs       c35                          2208
    rhs       c36                          1303
    rhs       c37                          2416
    rhs       c38                          1341
    rhs       c39                          2338
    rhs       c40                          1715
    rhs       c41                          1975
    rhs       c42                          1053
    rhs       c43                          1371
    rhs       c44                          1149
    rhs       c45                           684
    rhs       c46                          1199
    rhs       c47                          1465
    rhs       c48                          1814
    rhs       c49                          1840
    rhs       c50                          1963
    rhs       c51                          1205
    rhs       c52                          2012
    rhs       c53                          1972
    rhs       c54                          1128
    rhs       c55                          1574
    rhs       c56                          1887
    rhs       c57                          2095
    rhs       c58                          1183
    rhs       c59                          2495
    rhs       c60                          1102
    rhs       c61                          1491
    rhs       c62                          1731
    rhs       c63                          1801
    rhs       c64                          1487
    rhs       c65                           979
    rhs       c66                          2205
    rhs       c67                          1683
    rhs       c68                          2080
    rhs       c69                          2782
    rhs       c70                          1221
BOUNDS
 LI bnd       x1        0
 LI bnd       x2        0
 LI bnd       x3        0
 LI bnd       x4        0
 LI bnd       x5        0
 LI bnd       x6        0
 LI bnd       x7        0
 LI bnd       x8        0
 LI bnd       x9        0
 LI bnd       x10       0
 LI bnd       x11       0
 LI bnd       x12       0
 LI bnd       x13       0
 LI bnd       x14       0
 LI bnd       x15       0
 LI bnd       x16       0
 LI bnd       x17       0
 LI bnd       x18       0
 LI bnd       x19       0
 LI bnd       x20       0
 LI bnd       x21       0
 LI bnd       x22       0
 LI bnd       x23       0
 LI bnd       x24       0
 LI bnd       x25       0
 LI bnd       x26       0
 LI bnd       x27       0
 LI bnd       x28       0
 LI bnd       x29       0
 LI bnd       x30       0
 LI bnd       x31       0
 LI bnd       x32       0
 LI bnd       x33       0
 LI bnd       x34       0
 LI bnd       x35       0
 LI bnd       x36       0
 LI bnd       x37       0
 LI bnd       x38       0
 LI bnd       x39       0
 LI bnd       x40       0
 LI bnd       x41       0
 LI bnd       x42       0
 LI bnd       x43       0
 LI bnd       x44       0
 LI bnd       x45       0
 LI bnd       x46       0
 LI bnd       x47       0
 LI bnd       x48       0
 LI bnd       x49       0
 LI bnd       x50       0
 LI bnd       x51       0
 LI bnd       x52       0
 LI bnd       x53       0
 LI bnd       x54       0
 LI bnd       x55       0
 LI bnd       x56       0
 LI bnd       x57       0
 LI bnd       x58       0
 LI bnd       x59       0
 LI bnd       x60       0
 LI bnd       x61       0
 LI bnd       x62       0
 LI bnd       x63       0
 LI bnd       x64       0
 LI bnd       x65       0
 LI bnd       x66       0
 LI bnd       x67       0
 LI bnd       x68       0
 LI bnd       x69       0
 LI bnd       x70       0
ENDATA
